
Starting CP-SAT solver v9.15.6755
Parameters: random_seed: 2026074611 max_time_in_seconds: 2500 log_search_progress: true cp_model_presolve: true linearization_level: 2 num_search_workers: 4 cp_model_probing_level: 2 symmetry_level: 2

Initial satisfaction model '': (model_fingerprint: 0x4e30e602d415e6aa)
#Variables: 724 (606 primary variables)
  - 724 Booleans in [0,1]
#kBoolAnd: 110 (#enforced: 110) (#literals: 330)
#kBoolOr: 110 (#enforced: 110) (#literals: 220)
#kExactlyOne: 87 (#literals: 261)
#kLinear1: 34 (#enforced: 6)
#kLinear2: 336 (#enforced: 336) (#complex_domain: 110)
#kLinear3: 1'600 (#enforced: 6)
#kLinearN: 1'132 (#enforced: 243) (#terms: 9'111)

Starting presolve at 0.00s
  6.72e-04s  0.00e+00d  [DetectDominanceRelations] 
  8.78e-03s  0.00e+00d  [PresolveToFixPoint] #num_loops=3 #num_dual_strengthening=1 
  3.52e-05s  0.00e+00d  [ExtractEncodingFromLinear] #potential_supersets=94 
  3.13e-04s  0.00e+00d  [DetectDuplicateColumns] 
  1.01e-04s  0.00e+00d  [DetectDuplicateConstraints] #duplicates=7 
[Symmetry] Graph for symmetry has 4'861 nodes and 15'704 arcs.
[Symmetry] Symmetry computation done. time: 0.00142999 dtime: 0.0021625
[SAT presolve] num removable Booleans: 220 / 624
[SAT presolve] num trivial clauses: 0
[SAT presolve] [0s] clauses:2'724 literals:7'416 vars:506 one_side_vars:66 simple_definition:1 singleton_clauses:0
[SAT presolve] [0.000215452s] clauses:2'723 literals:7'409 vars:506 one_side_vars:66 simple_definition:1 singleton_clauses:0
[SAT presolve] [0.00053154s] clauses:2'491 literals:7'075 vars:394 one_side_vars:66 simple_definition:2 singleton_clauses:0
  1.35e-04s  0.00e+00d  [DetectDuplicateConstraintsWithDifferentEnforcements] #without_enforcements=4 
  6.28e-03s  3.74e-03d  [Probe] #probed=1'288 #fixed_bools=18 #equiv=9 #new_binary_clauses=947 
  7.65e-04s  7.73e-04d  [MaxClique] Merged 691 constraints with 1'554 literals into 604 constraints with 1'405 literals
  8.51e-04s  0.00e+00d  [DetectDominanceRelations] 
  3.37e-03s  0.00e+00d  [PresolveToFixPoint] #num_loops=2 #num_dual_strengthening=2 
  1.18e-03s  0.00e+00d  [ProcessAtMostOneAndLinear] 
  1.05e-04s  0.00e+00d  [DetectDuplicateConstraints] #duplicates=10 
  9.11e-05s  0.00e+00d  [DetectDuplicateConstraintsWithDifferentEnforcements] 
  3.21e-03s  9.92e-05d  [DetectDominatedLinearConstraints] #relevant_constraints=805 #num_inclusions=493 #num_redundant=5 
  1.27e-04s  0.00e+00d  [DetectDifferentVariables] 
  7.54e-04s  8.55e-05d  [ProcessSetPPC] #relevant_constraints=3'183 #num_inclusions=256 
  3.20e-04s  3.58e-05d  [TransformClausesToExactlyOne] #num_amos=621 #num_clauses=1'786 #num_transformed=4 #num_checked=1'786 
  4.00e-05s  0.00e+00d  [DetectEncodedComplexDomains] 
  3.36e-05s  2.00e-07d  [FindAlmostIdenticalLinearConstraints] #num_tested_pairs=2 
  9.41e-04s  1.41e-03d  [FindBigAtMostOneAndLinearOverlap] 
  1.45e-03s  1.20e-03d  [FindBigVerticalLinearOverlap] #blocks=4 #saved_nz=347 
  3.70e-04s  5.99e-04d  [FindBigHorizontalLinearOverlap] #linears=452 
  3.29e-04s  2.78e-05d  [MergeClauses] #num_collisions=4 #num_merges=4 #num_saved_literals=8 
  8.18e-04s  0.00e+00d  [DetectDominanceRelations] 
  3.03e-03s  0.00e+00d  [PresolveToFixPoint] #num_loops=2 #num_dual_strengthening=1 
  8.09e-04s  0.00e+00d  [DetectDominanceRelations] 
  2.91e-03s  0.00e+00d  [PresolveToFixPoint] #num_loops=1 #num_dual_strengthening=1 
  1.91e-04s  0.00e+00d  [DetectDuplicateColumns] 
  9.18e-05s  0.00e+00d  [DetectDuplicateConstraints] 
[Symmetry] Graph for symmetry has 4'505 nodes and 13'693 arcs.
[Symmetry] Symmetry computation done. time: 0.00098876 dtime: 0.00141764
[SAT presolve] num removable Booleans: 100 / 484
[SAT presolve] num trivial clauses: 0
[SAT presolve] [0s] clauses:2'350 literals:6'699 vars:460 one_side_vars:155 simple_definition:17 singleton_clauses:0
[SAT presolve] [0.000223526s] clauses:2'350 literals:6'559 vars:460 one_side_vars:159 simple_definition:79 singleton_clauses:0
[SAT presolve] [0.000374076s] clauses:2'140 literals:6'085 vars:451 one_side_vars:205 simple_definition:51 singleton_clauses:0
  1.51e-04s  0.00e+00d  [DetectDuplicateConstraintsWithDifferentEnforcements] #without_enforcements=4 
  5.47e-03s  1.88e-03d  [Probe] #probed=1'270 #new_binary_clauses=392 
  4.34e-04s  2.89e-04d  [MaxClique] Merged 502 constraints with 1'126 literals into 488 constraints with 1'122 literals
  8.19e-04s  0.00e+00d  [DetectDominanceRelations] 
  2.92e-03s  0.00e+00d  [PresolveToFixPoint] #num_loops=1 #num_dual_strengthening=1 
  1.04e-03s  0.00e+00d  [ProcessAtMostOneAndLinear] 
  1.50e-04s  0.00e+00d  [DetectDuplicateConstraints] 
  9.69e-05s  0.00e+00d  [DetectDuplicateConstraintsWithDifferentEnforcements] 
  8.15e-04s  4.87e-05d  [DetectDominatedLinearConstraints] #relevant_constraints=797 #num_inclusions=277 #num_redundant=1 
  1.20e-04s  0.00e+00d  [DetectDifferentVariables] 
  7.11e-04s  6.72e-05d  [ProcessSetPPC] #relevant_constraints=3'025 #num_inclusions=65 
  2.58e-04s  3.23e-05d  [TransformClausesToExactlyOne] #num_amos=485 #num_clauses=1'684 #num_checked=1'684 
  5.83e-05s  0.00e+00d  [DetectEncodedComplexDomains] 
  4.05e-05s  9.00e-08d  [FindAlmostIdenticalLinearConstraints] #num_tested_pairs=1 
  7.68e-04s  9.17e-04d  [FindBigAtMostOneAndLinearOverlap] 
  1.09e-03s  7.94e-04d  [FindBigVerticalLinearOverlap] 
  3.38e-04s  5.66e-04d  [FindBigHorizontalLinearOverlap] #linears=451 
  3.45e-04s  2.58e-05d  [MergeClauses] #num_collisions=69 #num_merges=69 #num_saved_literals=174 
  8.06e-04s  0.00e+00d  [DetectDominanceRelations] 
  2.91e-03s  0.00e+00d  [PresolveToFixPoint] #num_loops=1 #num_dual_strengthening=1 
  8.04e-04s  0.00e+00d  [DetectDominanceRelations] 
  2.91e-03s  0.00e+00d  [PresolveToFixPoint] #num_loops=1 #num_dual_strengthening=1 
  1.42e-04s  0.00e+00d  [DetectDuplicateColumns] 
  9.32e-05s  0.00e+00d  [DetectDuplicateConstraints] 
[Symmetry] Graph for symmetry has 4'235 nodes and 12'679 arcs.
[Symmetry] Symmetry computation done. time: 0.000992176 dtime: 0.00134041
[SAT presolve] num removable Booleans: 91 / 475
[SAT presolve] num trivial clauses: 0
[SAT presolve] [0s] clauses:2'113 literals:6'020 vars:451 one_side_vars:205 simple_definition:51 singleton_clauses:0
[SAT presolve] [0.000207687s] clauses:2'113 literals:6'020 vars:451 one_side_vars:205 simple_definition:51 singleton_clauses:0
[SAT presolve] [0.000266787s] clauses:2'113 literals:6'020 vars:451 one_side_vars:205 simple_definition:51 singleton_clauses:0
  1.35e-04s  0.00e+00d  [DetectDuplicateConstraintsWithDifferentEnforcements] 
  5.38e-03s  1.87e-03d  [Probe] #probed=1'270 #new_binary_clauses=392 
  4.01e-04s  2.75e-04d  [MaxClique] 
  8.14e-04s  0.00e+00d  [DetectDominanceRelations] 
  2.93e-03s  0.00e+00d  [PresolveToFixPoint] #num_loops=1 #num_dual_strengthening=1 
  1.03e-03s  0.00e+00d  [ProcessAtMostOneAndLinear] 
  1.10e-04s  0.00e+00d  [DetectDuplicateConstraints] 
  1.02e-04s  0.00e+00d  [DetectDuplicateConstraintsWithDifferentEnforcements] 
  9.06e-04s  5.16e-05d  [DetectDominatedLinearConstraints] #relevant_constraints=797 #num_inclusions=297 
  1.26e-04s  0.00e+00d  [DetectDifferentVariables] 
  6.97e-04s  6.69e-05d  [ProcessSetPPC] #relevant_constraints=3'019 #num_inclusions=59 
  2.68e-04s  3.23e-05d  [TransformClausesToExactlyOne] #num_amos=482 #num_clauses=1'684 #num_checked=1'684 
  6.40e-05s  0.00e+00d  [DetectEncodedComplexDomains] 
  6.06e-05s  9.00e-08d  [FindAlmostIdenticalLinearConstraints] #num_tested_pairs=1 
  7.40e-04s  9.18e-04d  [FindBigAtMostOneAndLinearOverlap] 
  1.09e-03s  7.94e-04d  [FindBigVerticalLinearOverlap] 
  3.69e-04s  5.66e-04d  [FindBigHorizontalLinearOverlap] #linears=451 
  3.23e-04s  2.58e-05d  [MergeClauses] #num_collisions=69 #num_merges=69 #num_saved_literals=174 
  8.16e-04s  0.00e+00d  [DetectDominanceRelations] 
  2.96e-03s  0.00e+00d  [PresolveToFixPoint] #num_loops=1 #num_dual_strengthening=1 
  3.04e-05s  0.00e+00d  [MergeNoOverlap] 
  3.16e-05s  0.00e+00d  [MergeNoOverlap2D] 

Presolve summary:
  - 39 affine relations were detected.
  - rule 'TODO dual: only one blocking constraint?' was applied 940 times.
  - rule 'TODO linear inclusion: superset is equality' was applied 217 times.
  - rule 'affine: new relation' was applied 39 times.
  - rule 'at_most_one: removed literals' was applied 59 times.
  - rule 'at_most_one: satisfied' was applied 1 time.
  - rule 'at_most_one: size one' was applied 58 times.
  - rule 'at_most_one: transformed into max clique' was applied 2 times.
  - rule 'bool_or: always true' was applied 10 times.
  - rule 'bool_or: implications' was applied 72 times.
  - rule 'bool_or: only one literal' was applied 12 times.
  - rule 'bool_or: removed enforcement literal' was applied 557 times.
  - rule 'clauses: transformed into exactly one' was applied 4 times.
  - rule 'deductions: 817 stored' was applied 1 time.
  - rule 'dual: fix variable' was applied 1 time.
  - rule 'duplicate: merged rhs of linear constraint' was applied 16 times.
  - rule 'duplicate: removed constraint' was applied 17 times.
  - rule 'duplicate: removed enforced constraint' was applied 8 times.
  - rule 'enforcement: false literal' was applied 40 times.
  - rule 'enforcement: true literal' was applied 14 times.
  - rule 'exactly_one: removed literals' was applied 30 times.
  - rule 'exactly_one: satisfied' was applied 5 times.
  - rule 'exactly_one: singleton' was applied 2 times.
  - rule 'exactly_one: size two' was applied 28 times.
  - rule 'exactly_one: x and not(x)' was applied 6 times.
  - rule 'incompatible linear: add implication' was applied 126 times.
  - rule 'linear + amo: empty after processing' was applied 6 times.
  - rule 'linear + amo: extracted enforcement literal' was applied 64 times.
  - rule 'linear + amo: trivial linear constraint' was applied 3 times.
  - rule 'linear inclusion: redundant containing constraint' was applied 2 times.
  - rule 'linear inclusion: redundant included constraint' was applied 2 times.
  - rule 'linear inclusion: sparsify superset' was applied 2 times.
  - rule 'linear matrix: common vertical rectangle' was applied 4 times.
  - rule 'linear1: always true' was applied 3 times.
  - rule 'linear1: x in domain' was applied 28 times.
  - rule 'linear2: convert ax + by != cte to clauses' was applied 244 times.
  - rule 'linear2: convert implied ax + by == cte to clauses' was applied 114 times.
  - rule 'linear2: implied ax + by = cte has only one solution' was applied 8 times.
  - rule 'linear: always true' was applied 429 times.
  - rule 'linear: coefficient strengthening by increasing it' was applied 2 times.
  - rule 'linear: empty' was applied 5 times.
  - rule 'linear: enforcement literal in expression' was applied 4 times.
  - rule 'linear: extracted at most one (max)' was applied 1 time.
  - rule 'linear: fixed or dup variables' was applied 884 times.
  - rule 'linear: negative clause' was applied 1'301 times.
  - rule 'linear: negative reified and' was applied 76 times.
  - rule 'linear: never in domain' was applied 6 times.
  - rule 'linear: positive at most one' was applied 42 times.
  - rule 'linear: reduced variable domains' was applied 5 times.
  - rule 'linear: remapped using affine relations' was applied 30 times.
  - rule 'presolve: 89 unused variables removed.' was applied 1 time.
  - rule 'presolve: iteration' was applied 3 times.
  - rule 'probing: bool_or reduced to implication' was applied 54 times.
  - rule 'probing: simplified clauses' was applied 11 times.
  - rule 'setppc: bool_or in at_most_one' was applied 11 times.
  - rule 'setppc: removed dominated constraints' was applied 87 times.
  - rule 'variables: both boolean and its negation fix the same variable' was applied 2 times.
  - rule 'variables: detect half reified value encoding' was applied 4 times.

Presolved satisfaction model '': (model_fingerprint: 0x4a81777b0cf3bf7e)
#Variables: 477 (404 primary variables)
  - 475 Booleans in [0,1]
  - 1 in [0,2]
  - 1 in [0,6]
#kAtMostOne: 53 (#literals: 228)
#kBoolAnd: 260 (#enforced: 260) (#literals: 689)
#kBoolAndClauses: 69 (#enforced: 69 #multi: 69) (#literals: 312)
#kBoolOr: 1'546 (#literals: 4'676)
#kExactlyOne: 56 (#literals: 220)
#kLinearN: 797 (#enforced: 116) (#terms: 5'283)
[Symmetry] Graph for symmetry has 3'984 nodes and 12'679 arcs.
[Symmetry] Symmetry computation done. time: 0.000783688 dtime: 0.00132535

Preloading model.
#Model   0.10s var:477/477 constraints:2781/2781

Starting search at 0.10s with 4 workers.
3 full problem subsolvers: [default_lp, max_lp, no_lp]
1 first solution subsolver: [fj]
2 interleaved subsolvers: [feasibility_pump, rins/rens]
2 helper subsolvers: [neighborhood_helper, synchronization_agent]

#Model   0.21s var:476/477 constraints:2780/2781
#Model   0.34s var:472/477 constraints:2776/2781
#Model   1.47s var:471/477 constraints:2775/2781
#Model   1.52s var:470/477 constraints:2775/2781
#Model   3.26s var:469/477 constraints:2775/2781
#Model  19.54s var:468/477 constraints:2773/2781
#Model 1216.42s var:467/477 constraints:2755/2781
#Model 1239.45s var:466/477 constraints:2733/2781
#Model 1241.92s var:465/477 constraints:2715/2781
#Model 1242.51s var:463/477 constraints:2677/2781
#Model 1246.22s var:451/477 constraints:2524/2781
#Model 1250.16s var:448/477 constraints:2474/2781
#Model 1251.36s var:447/477 constraints:2458/2781
#Model 1251.51s var:445/477 constraints:2422/2781
#Model 1251.55s var:444/477 constraints:2404/2781
#Done  1251.65s no_lp

Task timing                   n [     min,      max]      avg      dev     time         n [     min,      max]      avg      dev    dtime
        'default_lp':         1 [  20.86m,   20.86m]   20.86m   0.00ns   20.86m         2 [  2.23ms,   22.17m]   11.09m   11.09m   22.17m
  'feasibility_pump':      6210 [778.40us, 121.68ms]   1.43ms   1.55ms    8.90s      6209 [276.42us, 109.85ms] 296.11us   1.39ms    1.84s
                'fj':      4489 [102.44ms, 250.99ms] 138.34ms   9.02ms   10.35m      4489 [ 70.37ms, 100.13ms] 100.01ms 442.64us    7.48m
            'max_lp':         1 [  20.86m,   20.86m]   20.86m   0.00ns   20.86m         2 [ 83.09ms,   28.29m]   14.14m   14.14m   28.29m
             'no_lp':         1 [  20.86m,   20.86m]   20.86m   0.00ns   20.86m         2 [  1.70ms,   43.94m]   21.97m   21.97m   43.94m
         'rins/rens':      5719 [637.01us, 206.38ms] 108.58ms  39.31ms   10.35m      5706 [497.09us, 100.36ms]  69.38ms  36.18ms    6.60m

Search stats     Bools   Conflicts    Branches  Restarts  BacktrackToRoot   Backtrack     BoolPropag  IntegerPropag
  'default_lp':    475     129'453   5'612'952       762          885'076   1'233'807     55'215'925     67'047'983
      'max_lp':    475      72'601   8'328'107       374        1'294'158   1'665'911     80'031'308    103'779'215
       'no_lp':    475  12'320'812  17'326'964    43'808          420'508  12'672'216  1'090'241'230    256'362'849

SAT formula      Fixed  Equiv  Total  VarLeft  BinaryClauses  PermanentClauses  TemporaryClauses
  'default_lp':     10      5    475      460          2'336            34'028             6'206
      'max_lp':     26      9    475      440          2'910            19'422               968
       'no_lp':    241      5    475      229          2'894            49'813             4'191

SAT stats        ClassicMinim   LitRemoved  LitRemovedBinary   LitLearned  LitForgotten   Subsumed
  'default_lp':       113'463    1'286'148           678'934    3'289'619     1'814'155     52'716
      'max_lp':        61'123      622'612           348'252    1'430'702       609'954     31'324
       'no_lp':    11'109'848  175'117'148        58'262'833  278'923'882   212'636'089  3'629'724

Vivification       Clauses  Decisions  LitTrue  Subsumed  LitRemoved  DecisionReused  Conflicts
  'default_lp':    939'900  5'293'074        1    15'347     149'401         273'408      1'516
      'max_lp':  1'370'081  8'018'624        1    19'082     191'485         381'603      2'058
       'no_lp':    333'105  2'759'306        5    23'323     299'882          87'097      1'652

Clause deletion    at_true  l_and_not(l)  to_binary  sub_conflict  sub_extra  sub_decisions  sub_eager  sub_vivify  sub_probing  sub_inpro  blocked  eliminated  forgotten    promoted   conflicts
    'default_lp':    2'105             4          4        51'963        290          1'937        753      15'347        4'163     15'908        0           0     55'854     243'741     129'453
        'max_lp':   12'769           613         75        30'984        177            827        340      19'082        7'666     16'568        0           0     23'177     123'796      72'601
         'no_lp':   59'381             0         95     3'564'128     24'382        158'933     65'596      23'323       12'667    145'728        0           0  8'216'014  27'853'360  12'320'812

Lp stats         Component  Iterations  AddedCuts  OPTIMAL  DUAL_F.  DUAL_U.
  'default_lp':          1  16'564'513     49'926  167'633        1   97'276
      'max_lp':          1   7'249'086     45'048   21'250   45'283   19'985

Lp dimension        Final dimension of first component
  'default_lp':    249 rows, 335 columns, 2090 entries
      'max_lp':  1242 rows, 477 columns, 27836 entries

Lp debug         CutPropag  CutEqPropag  Adjust  Overflow        Bad  BadScaling
  'default_lp':          0            0  97'274         0  1'525'712           0
      'max_lp':          0           55  19'983         0  1'302'760           0

Lp pool          Constraints  Updates  Simplif  Merged  Shortened  Split  Strengthened      Cuts/Call
  'default_lp':       10'693   10'760       49       0         49     20             0  49'926/54'771
      'max_lp':       12'138   15'367   24'153       3     23'802  2'912         1'359  45'048/57'969

Lp Cut            default_lp  max_lp
          CG_FF:         323     110
           CG_K:         172       8
          CG_KL:         135       5
           CG_R:         340      78
          CG_RB:           1       1
         Clique:           -     142
             IB:          12       5
       MIR_1_FF:         224     549
        MIR_1_K:          32      12
       MIR_1_KL:         136      17
        MIR_1_R:         208     307
       MIR_1_RB:           1       -
      MIR_1_RLT:           -   4'089
       MIR_2_FF:         269     374
        MIR_2_K:          46      59
       MIR_2_KL:         118      49
        MIR_2_R:         307     453
       MIR_2_RB:           1       -
       MIR_3_FF:         134      86
        MIR_3_K:          28      14
       MIR_3_KL:          38       8
        MIR_3_R:         137     157
       MIR_4_FF:          57      28
        MIR_4_K:           6       4
       MIR_4_KL:          14       2
        MIR_4_R:          93     134
       MIR_4_RB:           1       -
       MIR_5_FF:          25      10
        MIR_5_K:           6       3
       MIR_5_KL:           3       -
        MIR_5_R:          59     124
       MIR_5_RB:           1       -
      MIR_5_RBP:           -       1
       MIR_6_FF:          11       3
        MIR_6_K:           3       1
       MIR_6_KL:           1       -
        MIR_6_R:          39     134
       MIR_6_RB:           2       -
   ZERO_HALF_FF:         131     324
    ZERO_HALF_K:          15      13
   ZERO_HALF_KL:          24       2
    ZERO_HALF_R:      46'759  37'736
   ZERO_HALF_RB:           -       1
  ZERO_HALF_RBP:          14       5

LNS stats       Improv/Calls  Closed  Difficulty  TimeLimit
  'rins/rens':     5710/5710     50%    8.01e-01       0.10

LS stats                                    Batches  Restarts/Perturbs    LinMoves   GenMoves  CompoundMoves  Bactracks  WeightUpdates  ScoreComputed
                             'fj_restart':      266                 77   7'712'323          0              0          0      6'306'799      5'642'724
                    'fj_restart_compound':      254                 70           0  2'775'804        169'007  1'303'261          6'683     46'517'789
                'fj_restart_compound_obj':      168                 66           0  1'800'339        143'996    828'024          3'903     30'638'348
            'fj_restart_compound_perturb':      143                 64           0  1'498'192        134'584    681'669          3'048     26'030'923
        'fj_restart_compound_perturb_obj':      461                 62           0  5'080'638        187'266  2'446'568         15'812     85'167'143
                       'fj_restart_decay':      303                 74   9'566'559          0              0          0        415'043      3'088'312
              'fj_restart_decay_compound':      312                 80           0  3'730'884        613'775  1'558'390          4'087     57'115'584
          'fj_restart_decay_compound_obj':      338                 67           0  4'103'189        679'900  1'711'440          4'454     62'010'954
      'fj_restart_decay_compound_perturb':      269                 59           0  3'253'802        540'715  1'356'382          3'511     49'295'497
  'fj_restart_decay_compound_perturb_obj':      212                 59           0  2'506'699        415'328  1'045'528          2'797     38'815'074
                   'fj_restart_decay_obj':      241                 70   7'613'633          0              0          0        330'242      2'450'100
               'fj_restart_decay_perturb':      291                 60   9'197'903          0              0          0        398'758      2'966'338
           'fj_restart_decay_perturb_obj':      213                 56   6'722'378          0              0          0        291'701      2'168'716
                         'fj_restart_obj':      433                 76  11'961'523          0              0          0     10'967'478      8'956'504
                     'fj_restart_perturb':      333                 72   9'632'417          0              0          0      8'069'022      6'856'750
                 'fj_restart_perturb_obj':      252                 74   7'178'632          0              0          0      6'033'315      5'317'498

Solution repositories    Added  Queried  Synchro
    'alternative_path':      0        0        0
      'best_solutions':      0        0        0
   'fj solution hints':  1'078        0    1'078
        'lp solutions':    623    5'719      622
                'pump':      0        0

Improving bounds shared    Num  Sym
            'default_lp':    2    0
                'max_lp':    1    0
                 'no_lp':  178    0

Clauses shared    #Exported  #Imported  #BinaryRead  #BinaryTotal
   'default_lp':      3'159     58'302          630         1'232
       'max_lp':      5'043     59'952        1'177         1'232
        'no_lp':     60'365      7'184        1'232         1'232

LRAT_status: NA
CpSolverResponse summary:
status: INFEASIBLE
objective: NA
best_bound: NA
integers: 349
booleans: 475
conflicts: 12320812
branches: 17326964
propagations: 1090241230
integer_propagations: 256362849
restarts: 43808
lp_iterations: 0
walltime: 1251.67
usertime: 1251.67
deterministic_time: 6510.68
gap_integral: 0

{
  "board_size": 22,
  "parity_proved": 0,
  "target": 34,
  "child_id": 2511,
  "child_count": 2640,
  "partition": "unknown_pair_x_diag_plus_twos_x_diag_minus_twos",
  "build_seconds": 0.07758426666259766,
  "workers": 4,
  "requested_seed": 2026074611,
  "effective_seed": 2026074611,
  "main_diagonal_pair": [
    6,
    15
  ],
  "pair_index": 104,
  "diag_plus_twos": 16,
  "diag_minus_twos": 15,
  "pair_excess": 6,
  "residual_certificate_slack": 106,
  "analytic_minimum_line_defect": 46,
  "analytic_defect_details": {
    "row_costs": {
      "12": 6,
      "13": 3,
      "14": 0,
      "15": 0,
      "16": 0,
      "17": 0
    },
    "column_costs": {
      "12": 6,
      "13": 3,
      "14": 0,
      "15": 0,
      "16": 0,
      "17": 0
    },
    "plus_cost": 24,
    "minus_cost": 22,
    "row_column_minimum": 0
  },
  "maximal_line_constraints": 2455,
  "analytic_infeasible": false,
  "allowed_points": 242,
  "status": "INFEASIBLE",
  "proof_method": "cp_sat_all_lines_with_certificate_profile_cuts",
  "elapsed_seconds": 1251.6706306934357,
  "branches": 17326964,
  "conflicts": 12320812
}
